c 39_3_checker.cnf
c
c field = 39
c formula set type = 3_checker
c
p cnf 4 46
70 
72 
74 
-68 
71 
73 
75 
-69 
70 
72 
74 
-78 
71 
73 
75 
-79 
72 
74 
78 
-70 
73 
75 
79 
-71 
72 
74 
78 
-80 
73 
75 
79 
-81 
74 
78 
80 
-72 
75 
79 
81 
-73 
74 
78 
80 
-82 
75 
79 
81 
-83 
78 
80 
82 
-74 
79 
81 
83 
-75 
78 
80 
82 
-84 
79 
81 
83 
-85 
16 
46 
106 
-136 
17 
47 
107 
-137 
46 
106 
136 
-16 
47 
107 
137 
-17 
46 
106 
136 
-166 
47 
107 
137 
-167 
106 
136 
166 
-46 
107 
137 
167 
-47 
106 
136 
166 
-196 
107 
137 
167 
-197 
12 
44 
108 
-140 
13 
45 
109 
-141 
44 
108 
140 
-12 
45 
109 
141 
-13 
44 
108 
140 
-172 
45 
109 
141 
-173 
108 
140 
172 
-44 
109 
141 
173 
-45 
108 
140 
172 
-204 
109 
141 
173 
-205 
20 
48 
104 
-132 
21 
49 
105 
-133 
48 
104 
132 
-20 
49 
105 
133 
-21 
48 
104 
132 
-160 
49 
105 
133 
-161 
104 
132 
160 
-48 
105 
133 
161 
-49 
104 
132 
160 
-188 
105 
133 
161 
-189 
